NAME : eil51optTour
COMMENT : Optimal tour for eil51 problem using GA  (426)
TYPE : TOUR
DIMENSION : 51
TOUR_SECTION
39
18
41
43
14
44
32
38
9
29
33
49
8
48
4 
37
10
31
0
21
1
15
20
28
19
34
35
2
27
30 
25
7
47
26
5
22
6
42
23
13
24
12
40
3
17
46
50
45
11
16
36

